words_easy_train/words_430_UNSAT.qaiger
aag 39 16 0 1 23
6
20
26
24
4
22
30
32
10
8
18
14
12
16
28
2
78
34 23 14
36 21 12
38 37 11
40 22 15
42 20 13
44 43 41
46 44 39
48 47 35
50 48 26
52 50 24
54 53 16
56 55 28
58 27 17
60 58 31
62 60 25
64 62 49
66 65 57
68 30 16
70 69 56
72 71 67
74 72 33
76 73 32
78 77 75
i0 2 y2[2]
i1 1 x1[1]
i2 1 x1[4]
i3 1 x1[3]
i4 2 y2[1]
i5 1 x1[2]
i6 1 x1[6]
i7 1 x1[7]
i8 2 y2[4]
i9 2 y2[3]
i10 1 x1[0]
i11 2 y2[6]
i12 2 y2[5]
i13 2 y2[7]
i14 1 x1[5]
i15 2 y2[0]
o0 bv[0]
c
simplified
  <
    >> 4
      2 y2
    or
      1 x1
      1
