words_easy_train/words_430_UNSAT.qaiger.qdimacs
p cnf 39 70
a 9 10 11 12 13 14 15 16 0
e 1 2 3 4 5 6 7 8 17 18 19 20 21 22 23 24 25 26 27 28 29 30 31 32 33 34 35 36 37 38 39 0
11 -7 17 0
-11 -17 0
7 -17 0
10 -6 18 0
-10 -18 0
6 -18 0
18 5 19 0
-18 -19 0
-5 -19 0
-11 7 20 0
11 -20 0
-7 -20 0
-10 6 21 0
10 -21 0
-6 -21 0
21 20 22 0
-21 -22 0
-20 -22 0
-22 19 23 0
22 -23 0
-19 -23 0
23 17 24 0
-23 -24 0
-17 -24 0
-24 -13 25 0
24 -25 0
13 -25 0
-25 -12 26 0
25 -26 0
12 -26 0
26 -8 27 0
-26 -27 0
8 -27 0
27 -14 28 0
-27 -28 0
14 -28 0
13 8 29 0
-13 -29 0
-8 -29 0
-29 15 30 0
29 -30 0
-15 -30 0
-30 12 31 0
30 -31 0
-12 -31 0
-31 24 32 0
31 -32 0
-24 -32 0
32 28 33 0
-32 -33 0
-28 -33 0
-15 -8 34 0
15 -34 0
8 -34 0
34 -28 35 0
-34 -35 0
28 -35 0
35 33 36 0
-35 -36 0
-33 -36 0
-36 16 37 0
36 -37 0
-16 -37 0
36 -16 38 0
-36 -38 0
16 -38 0
38 37 39 0
-38 -39 0
-37 -39 0
39 0
